HUN,8,6,662
2,56,4,96,5,60,1,85,0,53,3,86
3,36,4,16,0,87,2,85,1,79,5,41
0,72,5,19,4,30,3,73,1,74,2,72
4,41,5,57,2,81,1,48,3,9,0,83
0,42,5,2,1,9,4,60,2,95,3,40
1,71,0,58,2,27,3,11,4,38,5,41
1,94,2,22,0,56,5,30,4,96,3,97
0,7,5,57,4,15,1,25,2,16,3,70
